Maximize
  - 3.5989100752285 edge_0_1_0_0 - 1.0766167714158 edge_0_3_0_0
   - 2.2427286364936 edge_0_5_0_0 + 0.13791752030583 edge_0_15_0_0
   - 0.3378765142269943 edge_1_3_0_0 - 0.1340252556834148 edge_1_5_0_0
   - 0.4374301442298166 edge_2_1_0_0 - 0.0451988959803155 edge_2_3_0_0
   + 0.3746785332878667 edge_2_4_0_0 - 0.534952624101796 edge_2_5_0_0
   - 0.0303532772792399 edge_2_7_0_0 + 0.0512584047363702 edge_2_8_0_0
   - 0.3867865759113275 edge_2_11_0_0 + 0.9760823151116561 edge_2_14_0_0
   + 0.53567357853442 edge_2_15_0_0 + 0.4660770003263603 edge_2_16_0_0
   + 0.7113502535885972 edge_2_17_0_0 + 0.9675283301199596 edge_2_18_0_0
   + 0.3162468299747154 edge_2_19_0_0 + 0.8428554468129672 edge_2_23_0_0
   + 2.719639604205962 edge_2_24_0_0 + 1.44792212730236 edge_2_25_0_0
   - 0.3414979229950089 edge_3_1_0_0 + 0.00979383892355247 edge_3_2_0_0
   + 0.1473435561585034 edge_3_4_0_0 - 0.0185539804535488 edge_3_5_0_0
   + 0.4557498889559284 edge_3_7_0_0 + 0.0698837130337407 edge_3_8_0_0
   + 0.0272786987660952 edge_3_14_0_0 - 0.1194617403147587 edge_3_15_0_0
   - 0.0891205579101857 edge_3_24_0_0 + 0.8185535950923341 edge_3_25_0_0
   + 0.1221122488464436 edge_4_3_0_0 + 0.4522338463251339 edge_4_7_0_0
   + 0.1164347963387556 edge_4_8_0_0 - 0.2435859323721578 edge_4_23_0_0
   - 0.0010147039078315 edge_5_1_0_0 + 0.2333827335071518 edge_5_3_0_0
   - 0.3259323669186096 edge_5_4_0_0 + 0.0465888598571367 edge_5_7_0_0
   + 0.0440712854665283 edge_5_8_0_0 - 0.1356360404964216 edge_5_14_0_0
   - 0.3222025267524346 edge_7_1_0_0 + 0.1014442293272812 edge_7_2_0_0
   + 0.1258175192141025 edge_7_3_0_0 + 1.093312115874646 edge_7_4_0_0
   - 0.203243121514764 edge_7_5_0_0 + 0.1989476418691919 edge_7_8_0_0
   + 0.1288579056471835 edge_7_14_0_0 - 0.2081631799955143 edge_7_15_0_0
   + 0.4425865508844772 edge_7_18_0_0 + 0.1652044841184043 edge_7_19_0_0
   + 0.0610496651103063 edge_7_24_0_0 + 1.245539798380265 edge_7_25_0_0
   - 0.1016420686426855 edge_8_4_0_0 - 0.1423230424700785 edge_8_7_0_0
   - 0.0541666270026305 edge_14_2_0_0 + 0.0985727266873079 edge_14_15_0_0
   - 0.1458613945544694 edge_14_19_0_0 - 0.5180175894626591 edge_14_24_0_0
   + 0.2047353191479834 edge_15_1_0_0 + 0.5245847567125252 edge_15_2_0_0
   + 0.0286901825668286 edge_15_3_0_0 - 0.4846211503422084 edge_15_4_0_0
   - 0.1625081328092004 edge_15_5_0_0 + 0.00210564838414193 edge_15_7_0_0
   + 0.00179972678871342 edge_15_8_0_0 + 0.0929988561157527 edge_15_11_0_0
   + 0.4201923617640501 edge_15_14_0_0 + 0.3769056484807519 edge_15_15_0_0
   + 1.505182943596172 edge_15_16_0_0 + 1.271085295585078 edge_15_17_0_0
   + 0.8010430336961388 edge_15_18_0_0 + 0.600004891530135 edge_15_19_0_0
   + 0.0290995678898123 edge_15_23_0_0 + 0.4344131961937369 edge_15_24_0_0
   + 2.491316959250924 edge_15_25_0_0 + 0.6818051231139866 edge_16_17_0_0
   + 0.4738041072618143 edge_16_18_0_0 + 0.2810296335468814 edge_16_19_0_0
   + 0.0217012402969682 edge_17_11_0_0 + 0.8316428032396468 edge_17_14_0_0
   + 0.5707204799873592 edge_17_15_0_0 + 1.194069392903556 edge_17_16_0_0
   + 3.03880921442456 edge_17_18_0_0 + 1.757993069336541 edge_17_19_0_0
   - 0.1310051843760567 edge_17_23_0_0 + 2.143057138884418 edge_17_25_0_0
   - 0.7547201912911626 edge_18_16_0_0 - 0.1851075365135453 edge_19_11_0_0
   + 0.3322231068546458 edge_19_14_0_0 + 0.2303516439053423 edge_19_15_0_0
   - 0.5785754052520241 edge_19_16_0_0 - 0.3527057943262688 edge_19_17_0_0
   + 0.0582837099009574 edge_19_18_0_0 + 0.5297248724029496 edge_23_24_0_0
   + 0.2251212450043 edge_24_2_0_0 - 1.038143195664966 edge_24_4_0_0
   - 1.917171594721392 edge_24_5_0_0 - 0.525552042390802 edge_24_8_0_0
   + 0.1849980453815599 edge_24_14_0_0 - 0.0180286017021024 edge_24_15_0_0
   - 0.984545731821215 edge_24_17_0_0 - 0.3007363812571168 edge_24_19_0_0
   + 0.6432418768947642 edge_24_23_0_0 + 1.125553761078173 edge_24_25_0_0
   - 0.2803805562054593 edge_25_11_0_0
Subject To
 one_parent_1: edge_0_1_0_0 + edge_2_1_0_0 + edge_3_1_0_0 + edge_5_1_0_0
   + edge_7_1_0_0 + edge_15_1_0_0 = 1
 consume_one_flow_unit_1: flow_0_1_0_0 - flow_1_3_0_0 - flow_1_5_0_0
   + flow_2_1_0_0 + flow_3_1_0_0 + flow_5_1_0_0 + flow_7_1_0_0
   + flow_15_1_0_0 = 1
 one_parent_2: edge_3_2_0_0 + edge_7_2_0_0 + edge_14_2_0_0 + edge_15_2_0_0
   + edge_24_2_0_0 = 1
 consume_one_flow_unit_2: - flow_2_1_0_0 - flow_2_3_0_0 - flow_2_4_0_0
   - flow_2_5_0_0 - flow_2_7_0_0 - flow_2_8_0_0 - flow_2_11_0_0
   - flow_2_14_0_0 - flow_2_15_0_0 - flow_2_16_0_0 - flow_2_17_0_0
   - flow_2_18_0_0 - flow_2_19_0_0 - flow_2_23_0_0 - flow_2_24_0_0
   - flow_2_25_0_0 + flow_3_2_0_0 + flow_7_2_0_0 + flow_14_2_0_0
   + flow_15_2_0_0 + flow_24_2_0_0 = 1
 one_parent_3: edge_0_3_0_0 + edge_1_3_0_0 + edge_2_3_0_0 + edge_4_3_0_0
   + edge_5_3_0_0 + edge_7_3_0_0 + edge_15_3_0_0 = 1
 consume_one_flow_unit_3: flow_0_3_0_0 + flow_1_3_0_0 + flow_2_3_0_0
   - flow_3_1_0_0 - flow_3_2_0_0 - flow_3_4_0_0 - flow_3_5_0_0
   - flow_3_7_0_0 - flow_3_8_0_0 - flow_3_14_0_0 - flow_3_15_0_0
   - flow_3_24_0_0 - flow_3_25_0_0 + flow_4_3_0_0 + flow_5_3_0_0
   + flow_7_3_0_0 + flow_15_3_0_0 = 1
 one_parent_4: edge_2_4_0_0 + edge_3_4_0_0 + edge_5_4_0_0 + edge_7_4_0_0
   + edge_8_4_0_0 + edge_15_4_0_0 + edge_24_4_0_0 = 1
 consume_one_flow_unit_4: flow_2_4_0_0 + flow_3_4_0_0 - flow_4_3_0_0
   - flow_4_7_0_0 - flow_4_8_0_0 - flow_4_23_0_0 + flow_5_4_0_0
   + flow_7_4_0_0 + flow_8_4_0_0 + flow_15_4_0_0 + flow_24_4_0_0 = 1
 one_parent_5: edge_0_5_0_0 + edge_1_5_0_0 + edge_2_5_0_0 + edge_3_5_0_0
   + edge_7_5_0_0 + edge_15_5_0_0 + edge_24_5_0_0 = 1
 consume_one_flow_unit_5: flow_0_5_0_0 + flow_1_5_0_0 + flow_2_5_0_0
   + flow_3_5_0_0 - flow_5_1_0_0 - flow_5_3_0_0 - flow_5_4_0_0
   - flow_5_7_0_0 - flow_5_8_0_0 - flow_5_14_0_0 + flow_7_5_0_0
   + flow_15_5_0_0 + flow_24_5_0_0 = 1
 one_parent_6: = 1
 consume_one_flow_unit_6: = 1
 one_parent_7: edge_2_7_0_0 + edge_3_7_0_0 + edge_4_7_0_0 + edge_5_7_0_0
   + edge_8_7_0_0 + edge_15_7_0_0 = 1
 consume_one_flow_unit_7: flow_2_7_0_0 + flow_3_7_0_0 + flow_4_7_0_0
   + flow_5_7_0_0 - flow_7_1_0_0 - flow_7_2_0_0 - flow_7_3_0_0
   - flow_7_4_0_0 - flow_7_5_0_0 - flow_7_8_0_0 - flow_7_14_0_0
   - flow_7_15_0_0 - flow_7_18_0_0 - flow_7_19_0_0 - flow_7_24_0_0
   - flow_7_25_0_0 + flow_8_7_0_0 + flow_15_7_0_0 = 1
 one_parent_8: edge_2_8_0_0 + edge_3_8_0_0 + edge_4_8_0_0 + edge_5_8_0_0
   + edge_7_8_0_0 + edge_15_8_0_0 + edge_24_8_0_0 = 1
 consume_one_flow_unit_8: flow_2_8_0_0 + flow_3_8_0_0 + flow_4_8_0_0
   + flow_5_8_0_0 + flow_7_8_0_0 - flow_8_4_0_0 - flow_8_7_0_0
   + flow_15_8_0_0 + flow_24_8_0_0 = 1
 one_parent_9: = 1
 consume_one_flow_unit_9: = 1
 one_parent_10: = 1
 consume_one_flow_unit_10: = 1
 one_parent_11: edge_2_11_0_0 + edge_15_11_0_0 + edge_17_11_0_0
   + edge_19_11_0_0 + edge_25_11_0_0 = 1
 consume_one_flow_unit_11: flow_2_11_0_0 + flow_15_11_0_0 + flow_17_11_0_0
   + flow_19_11_0_0 + flow_25_11_0_0 = 1
 one_parent_12: = 1
 consume_one_flow_unit_12: = 1
 one_parent_13: = 1
 consume_one_flow_unit_13: = 1
 one_parent_14: edge_2_14_0_0 + edge_3_14_0_0 + edge_5_14_0_0
   + edge_7_14_0_0 + edge_15_14_0_0 + edge_17_14_0_0 + edge_19_14_0_0
   + edge_24_14_0_0 = 1
 consume_one_flow_unit_14: flow_2_14_0_0 + flow_3_14_0_0 + flow_5_14_0_0
   + flow_7_14_0_0 - flow_14_2_0_0 - flow_14_15_0_0 - flow_14_19_0_0
   - flow_14_24_0_0 + flow_15_14_0_0 + flow_17_14_0_0 + flow_19_14_0_0
   + flow_24_14_0_0 = 1
 one_parent_15: edge_0_15_0_0 + edge_2_15_0_0 + edge_3_15_0_0
   + edge_7_15_0_0 + edge_14_15_0_0 + edge_15_15_0_0 + edge_17_15_0_0
   + edge_19_15_0_0 + edge_24_15_0_0 = 1
 consume_one_flow_unit_15: flow_0_15_0_0 + flow_2_15_0_0 + flow_3_15_0_0
   + flow_7_15_0_0 + flow_14_15_0_0 - flow_15_1_0_0 - flow_15_2_0_0
   - flow_15_3_0_0 - flow_15_4_0_0 - flow_15_5_0_0 - flow_15_7_0_0
   - flow_15_8_0_0 - flow_15_11_0_0 - flow_15_14_0_0 - flow_15_16_0_0
   - flow_15_17_0_0 - flow_15_18_0_0 - flow_15_19_0_0 - flow_15_23_0_0
   - flow_15_24_0_0 - flow_15_25_0_0 + flow_17_15_0_0 + flow_19_15_0_0
   + flow_24_15_0_0 = 1
 one_parent_16: edge_2_16_0_0 + edge_15_16_0_0 + edge_17_16_0_0
   + edge_18_16_0_0 + edge_19_16_0_0 = 1
 consume_one_flow_unit_16: flow_2_16_0_0 + flow_15_16_0_0 - flow_16_17_0_0
   - flow_16_18_0_0 - flow_16_19_0_0 + flow_17_16_0_0 + flow_18_16_0_0
   + flow_19_16_0_0 = 1
 one_parent_17: edge_2_17_0_0 + edge_15_17_0_0 + edge_16_17_0_0
   + edge_19_17_0_0 + edge_24_17_0_0 = 1
 consume_one_flow_unit_17: flow_2_17_0_0 + flow_15_17_0_0 + flow_16_17_0_0
   - flow_17_11_0_0 - flow_17_14_0_0 - flow_17_15_0_0 - flow_17_16_0_0
   - flow_17_18_0_0 - flow_17_19_0_0 - flow_17_23_0_0 - flow_17_25_0_0
   + flow_19_17_0_0 + flow_24_17_0_0 = 1
 one_parent_18: edge_2_18_0_0 + edge_7_18_0_0 + edge_15_18_0_0
   + edge_16_18_0_0 + edge_17_18_0_0 + edge_19_18_0_0 = 1
 consume_one_flow_unit_18: flow_2_18_0_0 + flow_7_18_0_0 + flow_15_18_0_0
   + flow_16_18_0_0 + flow_17_18_0_0 - flow_18_16_0_0 + flow_19_18_0_0 = 1
 one_parent_19: edge_2_19_0_0 + edge_7_19_0_0 + edge_14_19_0_0
   + edge_15_19_0_0 + edge_16_19_0_0 + edge_17_19_0_0 + edge_24_19_0_0 = 1
 consume_one_flow_unit_19: flow_2_19_0_0 + flow_7_19_0_0 + flow_14_19_0_0
   + flow_15_19_0_0 + flow_16_19_0_0 + flow_17_19_0_0 - flow_19_11_0_0
   - flow_19_14_0_0 - flow_19_15_0_0 - flow_19_16_0_0 - flow_19_17_0_0
   - flow_19_18_0_0 + flow_24_19_0_0 = 1
 one_parent_20: = 1
 consume_one_flow_unit_20: = 1
 one_parent_21: = 1
 consume_one_flow_unit_21: = 1
 one_parent_22: = 1
 consume_one_flow_unit_22: = 1
 one_parent_23: edge_2_23_0_0 + edge_4_23_0_0 + edge_15_23_0_0
   + edge_17_23_0_0 + edge_24_23_0_0 = 1
 consume_one_flow_unit_23: flow_2_23_0_0 + flow_4_23_0_0 + flow_15_23_0_0
   + flow_17_23_0_0 - flow_23_24_0_0 + flow_24_23_0_0 = 1
 one_parent_24: edge_2_24_0_0 + edge_3_24_0_0 + edge_7_24_0_0
   + edge_14_24_0_0 + edge_15_24_0_0 + edge_23_24_0_0 = 1
 consume_one_flow_unit_24: flow_2_24_0_0 + flow_3_24_0_0 + flow_7_24_0_0
   + flow_14_24_0_0 + flow_15_24_0_0 + flow_23_24_0_0 - flow_24_2_0_0
   - flow_24_4_0_0 - flow_24_5_0_0 - flow_24_8_0_0 - flow_24_14_0_0
   - flow_24_15_0_0 - flow_24_17_0_0 - flow_24_19_0_0 - flow_24_23_0_0
   - flow_24_25_0_0 = 1
 one_parent_25: edge_2_25_0_0 + edge_3_25_0_0 + edge_7_25_0_0
   + edge_15_25_0_0 + edge_17_25_0_0 + edge_24_25_0_0 = 1
 consume_one_flow_unit_25: flow_2_25_0_0 + flow_3_25_0_0 + flow_7_25_0_0
   + flow_15_25_0_0 + flow_17_25_0_0 + flow_24_25_0_0 - flow_25_11_0_0 = 1
 root_flow: flow_0_1_0_0 + flow_0_3_0_0 + flow_0_5_0_0 + flow_0_15_0_0
   = 25
 inactive_no_flow_0_1_0_0: flow_0_1_0_0 - 1000 edge_0_1_0_0 <= 0
 inactive_no_flow_0_3_0_0: flow_0_3_0_0 - 1000 edge_0_3_0_0 <= 0
 inactive_no_flow_0_5_0_0: flow_0_5_0_0 - 1000 edge_0_5_0_0 <= 0
 inactive_no_flow_0_15_0_0: flow_0_15_0_0 - 1000 edge_0_15_0_0 <= 0
 inactive_no_flow_1_3_0_0: flow_1_3_0_0 - 1000 edge_1_3_0_0 <= 0
 inactive_no_flow_1_5_0_0: flow_1_5_0_0 - 1000 edge_1_5_0_0 <= 0
 inactive_no_flow_2_1_0_0: flow_2_1_0_0 - 1000 edge_2_1_0_0 <= 0
 inactive_no_flow_2_3_0_0: flow_2_3_0_0 - 1000 edge_2_3_0_0 <= 0
 inactive_no_flow_2_4_0_0: flow_2_4_0_0 - 1000 edge_2_4_0_0 <= 0
 inactive_no_flow_2_5_0_0: flow_2_5_0_0 - 1000 edge_2_5_0_0 <= 0
 inactive_no_flow_2_7_0_0: flow_2_7_0_0 - 1000 edge_2_7_0_0 <= 0
 inactive_no_flow_2_8_0_0: flow_2_8_0_0 - 1000 edge_2_8_0_0 <= 0
 inactive_no_flow_2_11_0_0: flow_2_11_0_0 - 1000 edge_2_11_0_0 <= 0
 inactive_no_flow_2_14_0_0: flow_2_14_0_0 - 1000 edge_2_14_0_0 <= 0
 inactive_no_flow_2_15_0_0: flow_2_15_0_0 - 1000 edge_2_15_0_0 <= 0
 inactive_no_flow_2_16_0_0: flow_2_16_0_0 - 1000 edge_2_16_0_0 <= 0
 inactive_no_flow_2_17_0_0: flow_2_17_0_0 - 1000 edge_2_17_0_0 <= 0
 inactive_no_flow_2_18_0_0: flow_2_18_0_0 - 1000 edge_2_18_0_0 <= 0
 inactive_no_flow_2_19_0_0: flow_2_19_0_0 - 1000 edge_2_19_0_0 <= 0
 inactive_no_flow_2_23_0_0: flow_2_23_0_0 - 1000 edge_2_23_0_0 <= 0
 inactive_no_flow_2_24_0_0: flow_2_24_0_0 - 1000 edge_2_24_0_0 <= 0
 inactive_no_flow_2_25_0_0: flow_2_25_0_0 - 1000 edge_2_25_0_0 <= 0
 inactive_no_flow_3_1_0_0: flow_3_1_0_0 - 1000 edge_3_1_0_0 <= 0
 inactive_no_flow_3_2_0_0: flow_3_2_0_0 - 1000 edge_3_2_0_0 <= 0
 inactive_no_flow_3_4_0_0: flow_3_4_0_0 - 1000 edge_3_4_0_0 <= 0
 inactive_no_flow_3_5_0_0: flow_3_5_0_0 - 1000 edge_3_5_0_0 <= 0
 inactive_no_flow_3_7_0_0: flow_3_7_0_0 - 1000 edge_3_7_0_0 <= 0
 inactive_no_flow_3_8_0_0: flow_3_8_0_0 - 1000 edge_3_8_0_0 <= 0
 inactive_no_flow_3_14_0_0: flow_3_14_0_0 - 1000 edge_3_14_0_0 <= 0
 inactive_no_flow_3_15_0_0: flow_3_15_0_0 - 1000 edge_3_15_0_0 <= 0
 inactive_no_flow_3_24_0_0: flow_3_24_0_0 - 1000 edge_3_24_0_0 <= 0
 inactive_no_flow_3_25_0_0: flow_3_25_0_0 - 1000 edge_3_25_0_0 <= 0
 inactive_no_flow_4_3_0_0: flow_4_3_0_0 - 1000 edge_4_3_0_0 <= 0
 inactive_no_flow_4_7_0_0: flow_4_7_0_0 - 1000 edge_4_7_0_0 <= 0
 inactive_no_flow_4_8_0_0: flow_4_8_0_0 - 1000 edge_4_8_0_0 <= 0
 inactive_no_flow_4_23_0_0: flow_4_23_0_0 - 1000 edge_4_23_0_0 <= 0
 inactive_no_flow_5_1_0_0: flow_5_1_0_0 - 1000 edge_5_1_0_0 <= 0
 inactive_no_flow_5_3_0_0: flow_5_3_0_0 - 1000 edge_5_3_0_0 <= 0
 inactive_no_flow_5_4_0_0: flow_5_4_0_0 - 1000 edge_5_4_0_0 <= 0
 inactive_no_flow_5_7_0_0: flow_5_7_0_0 - 1000 edge_5_7_0_0 <= 0
 inactive_no_flow_5_8_0_0: flow_5_8_0_0 - 1000 edge_5_8_0_0 <= 0
 inactive_no_flow_5_14_0_0: flow_5_14_0_0 - 1000 edge_5_14_0_0 <= 0
 inactive_no_flow_7_1_0_0: flow_7_1_0_0 - 1000 edge_7_1_0_0 <= 0
 inactive_no_flow_7_2_0_0: flow_7_2_0_0 - 1000 edge_7_2_0_0 <= 0
 inactive_no_flow_7_3_0_0: flow_7_3_0_0 - 1000 edge_7_3_0_0 <= 0
 inactive_no_flow_7_4_0_0: flow_7_4_0_0 - 1000 edge_7_4_0_0 <= 0
 inactive_no_flow_7_5_0_0: flow_7_5_0_0 - 1000 edge_7_5_0_0 <= 0
 inactive_no_flow_7_8_0_0: flow_7_8_0_0 - 1000 edge_7_8_0_0 <= 0
 inactive_no_flow_7_14_0_0: flow_7_14_0_0 - 1000 edge_7_14_0_0 <= 0
 inactive_no_flow_7_15_0_0: flow_7_15_0_0 - 1000 edge_7_15_0_0 <= 0
 inactive_no_flow_7_18_0_0: flow_7_18_0_0 - 1000 edge_7_18_0_0 <= 0
 inactive_no_flow_7_19_0_0: flow_7_19_0_0 - 1000 edge_7_19_0_0 <= 0
 inactive_no_flow_7_24_0_0: flow_7_24_0_0 - 1000 edge_7_24_0_0 <= 0
 inactive_no_flow_7_25_0_0: flow_7_25_0_0 - 1000 edge_7_25_0_0 <= 0
 inactive_no_flow_8_4_0_0: flow_8_4_0_0 - 1000 edge_8_4_0_0 <= 0
 inactive_no_flow_8_7_0_0: flow_8_7_0_0 - 1000 edge_8_7_0_0 <= 0
 inactive_no_flow_14_2_0_0: flow_14_2_0_0 - 1000 edge_14_2_0_0 <= 0
 inactive_no_flow_14_15_0_0: flow_14_15_0_0 - 1000 edge_14_15_0_0 <= 0
 inactive_no_flow_14_19_0_0: flow_14_19_0_0 - 1000 edge_14_19_0_0 <= 0
 inactive_no_flow_14_24_0_0: flow_14_24_0_0 - 1000 edge_14_24_0_0 <= 0
 inactive_no_flow_15_1_0_0: flow_15_1_0_0 - 1000 edge_15_1_0_0 <= 0
 inactive_no_flow_15_2_0_0: flow_15_2_0_0 - 1000 edge_15_2_0_0 <= 0
 inactive_no_flow_15_3_0_0: flow_15_3_0_0 - 1000 edge_15_3_0_0 <= 0
 inactive_no_flow_15_4_0_0: flow_15_4_0_0 - 1000 edge_15_4_0_0 <= 0
 inactive_no_flow_15_5_0_0: flow_15_5_0_0 - 1000 edge_15_5_0_0 <= 0
 inactive_no_flow_15_7_0_0: flow_15_7_0_0 - 1000 edge_15_7_0_0 <= 0
 inactive_no_flow_15_8_0_0: flow_15_8_0_0 - 1000 edge_15_8_0_0 <= 0
 inactive_no_flow_15_11_0_0: flow_15_11_0_0 - 1000 edge_15_11_0_0 <= 0
 inactive_no_flow_15_14_0_0: flow_15_14_0_0 - 1000 edge_15_14_0_0 <= 0
 inactive_no_flow_15_15_0_0: flow_15_15_0_0 - 1000 edge_15_15_0_0 <= 0
 inactive_no_flow_15_16_0_0: flow_15_16_0_0 - 1000 edge_15_16_0_0 <= 0
 inactive_no_flow_15_17_0_0: flow_15_17_0_0 - 1000 edge_15_17_0_0 <= 0
 inactive_no_flow_15_18_0_0: flow_15_18_0_0 - 1000 edge_15_18_0_0 <= 0
 inactive_no_flow_15_19_0_0: flow_15_19_0_0 - 1000 edge_15_19_0_0 <= 0
 inactive_no_flow_15_23_0_0: flow_15_23_0_0 - 1000 edge_15_23_0_0 <= 0
 inactive_no_flow_15_24_0_0: flow_15_24_0_0 - 1000 edge_15_24_0_0 <= 0
 inactive_no_flow_15_25_0_0: flow_15_25_0_0 - 1000 edge_15_25_0_0 <= 0
 inactive_no_flow_16_17_0_0: flow_16_17_0_0 - 1000 edge_16_17_0_0 <= 0
 inactive_no_flow_16_18_0_0: flow_16_18_0_0 - 1000 edge_16_18_0_0 <= 0
 inactive_no_flow_16_19_0_0: flow_16_19_0_0 - 1000 edge_16_19_0_0 <= 0
 inactive_no_flow_17_11_0_0: flow_17_11_0_0 - 1000 edge_17_11_0_0 <= 0
 inactive_no_flow_17_14_0_0: flow_17_14_0_0 - 1000 edge_17_14_0_0 <= 0
 inactive_no_flow_17_15_0_0: flow_17_15_0_0 - 1000 edge_17_15_0_0 <= 0
 inactive_no_flow_17_16_0_0: flow_17_16_0_0 - 1000 edge_17_16_0_0 <= 0
 inactive_no_flow_17_18_0_0: flow_17_18_0_0 - 1000 edge_17_18_0_0 <= 0
 inactive_no_flow_17_19_0_0: flow_17_19_0_0 - 1000 edge_17_19_0_0 <= 0
 inactive_no_flow_17_23_0_0: flow_17_23_0_0 - 1000 edge_17_23_0_0 <= 0
 inactive_no_flow_17_25_0_0: flow_17_25_0_0 - 1000 edge_17_25_0_0 <= 0
 inactive_no_flow_18_16_0_0: flow_18_16_0_0 - 1000 edge_18_16_0_0 <= 0
 inactive_no_flow_19_11_0_0: flow_19_11_0_0 - 1000 edge_19_11_0_0 <= 0
 inactive_no_flow_19_14_0_0: flow_19_14_0_0 - 1000 edge_19_14_0_0 <= 0
 inactive_no_flow_19_15_0_0: flow_19_15_0_0 - 1000 edge_19_15_0_0 <= 0
 inactive_no_flow_19_16_0_0: flow_19_16_0_0 - 1000 edge_19_16_0_0 <= 0
 inactive_no_flow_19_17_0_0: flow_19_17_0_0 - 1000 edge_19_17_0_0 <= 0
 inactive_no_flow_19_18_0_0: flow_19_18_0_0 - 1000 edge_19_18_0_0 <= 0
 inactive_no_flow_23_24_0_0: flow_23_24_0_0 - 1000 edge_23_24_0_0 <= 0
 inactive_no_flow_24_2_0_0: flow_24_2_0_0 - 1000 edge_24_2_0_0 <= 0
 inactive_no_flow_24_4_0_0: flow_24_4_0_0 - 1000 edge_24_4_0_0 <= 0
 inactive_no_flow_24_5_0_0: flow_24_5_0_0 - 1000 edge_24_5_0_0 <= 0
 inactive_no_flow_24_8_0_0: flow_24_8_0_0 - 1000 edge_24_8_0_0 <= 0
 inactive_no_flow_24_14_0_0: flow_24_14_0_0 - 1000 edge_24_14_0_0 <= 0
 inactive_no_flow_24_15_0_0: flow_24_15_0_0 - 1000 edge_24_15_0_0 <= 0
 inactive_no_flow_24_17_0_0: flow_24_17_0_0 - 1000 edge_24_17_0_0 <= 0
 inactive_no_flow_24_19_0_0: flow_24_19_0_0 - 1000 edge_24_19_0_0 <= 0
 inactive_no_flow_24_23_0_0: flow_24_23_0_0 - 1000 edge_24_23_0_0 <= 0
 inactive_no_flow_24_25_0_0: flow_24_25_0_0 - 1000 edge_24_25_0_0 <= 0
 inactive_no_flow_25_11_0_0: flow_25_11_0_0 - 1000 edge_25_11_0_0 <= 0
Bounds
Binaries
 edge_0_1_0_0 edge_0_3_0_0 edge_0_5_0_0 edge_0_15_0_0 edge_1_3_0_0
 edge_1_5_0_0 edge_2_1_0_0 edge_2_3_0_0 edge_2_4_0_0 edge_2_5_0_0
 edge_2_7_0_0 edge_2_8_0_0 edge_2_11_0_0 edge_2_14_0_0 edge_2_15_0_0
 edge_2_16_0_0 edge_2_17_0_0 edge_2_18_0_0 edge_2_19_0_0 edge_2_23_0_0
 edge_2_24_0_0 edge_2_25_0_0 edge_3_1_0_0 edge_3_2_0_0 edge_3_4_0_0
 edge_3_5_0_0 edge_3_7_0_0 edge_3_8_0_0 edge_3_14_0_0 edge_3_15_0_0
 edge_3_24_0_0 edge_3_25_0_0 edge_4_3_0_0 edge_4_7_0_0 edge_4_8_0_0
 edge_4_23_0_0 edge_5_1_0_0 edge_5_3_0_0 edge_5_4_0_0 edge_5_7_0_0
 edge_5_8_0_0 edge_5_14_0_0 edge_7_1_0_0 edge_7_2_0_0 edge_7_3_0_0
 edge_7_4_0_0 edge_7_5_0_0 edge_7_8_0_0 edge_7_14_0_0 edge_7_15_0_0
 edge_7_18_0_0 edge_7_19_0_0 edge_7_24_0_0 edge_7_25_0_0 edge_8_4_0_0
 edge_8_7_0_0 edge_14_2_0_0 edge_14_15_0_0 edge_14_19_0_0 edge_14_24_0_0
 edge_15_1_0_0 edge_15_2_0_0 edge_15_3_0_0 edge_15_4_0_0 edge_15_5_0_0
 edge_15_7_0_0 edge_15_8_0_0 edge_15_11_0_0 edge_15_14_0_0 edge_15_15_0_0
 edge_15_16_0_0 edge_15_17_0_0 edge_15_18_0_0 edge_15_19_0_0 edge_15_23_0_0
 edge_15_24_0_0 edge_15_25_0_0 edge_16_17_0_0 edge_16_18_0_0 edge_16_19_0_0
 edge_17_11_0_0 edge_17_14_0_0 edge_17_15_0_0 edge_17_16_0_0 edge_17_18_0_0
 edge_17_19_0_0 edge_17_23_0_0 edge_17_25_0_0 edge_18_16_0_0 edge_19_11_0_0
 edge_19_14_0_0 edge_19_15_0_0 edge_19_16_0_0 edge_19_17_0_0 edge_19_18_0_0
 edge_23_24_0_0 edge_24_2_0_0 edge_24_4_0_0 edge_24_5_0_0 edge_24_8_0_0
 edge_24_14_0_0 edge_24_15_0_0 edge_24_17_0_0 edge_24_19_0_0 edge_24_23_0_0
 edge_24_25_0_0 edge_25_11_0_0
End
